100
32 0
16 0
36 0
9 3
27 1
3 4
29 3
16 4
31 2
19 1
20 3
5 3
41 2
34 3
12 4
24 0
27 4
29 4
2 4
16 3
11 0
14 0
40 4
5 4
13 2
25 4
43 2
25 3
18 0
33 2
31 0
41 0
34 4
1 0
6 0
30 4
6 4
18 3
13 1
43 4
39 2
36 1
1 1
38 4
27 0
25 0
37 4
33 4
32 4
30 1
7 1
20 0
7 0
20 4
15 4
24 3
43 0
0 0
6 2
15 2
37 3
43 3
22 4
19 4
9 1
3 0
14 4
7 3
22 3
28 2
33 3
23 4
42 0
29 0
10 1
15 0
41 4
38 0
37 1
10 3
13 0
5 1
2 0
39 0
33 0
24 1
42 2
13 4
32 2
4 3
7 4
9 0
31 4
22 0
23 3
2 3
20 1
10 0
12 0
6 1

